# Objective value = 1.9519263494793606e+03
x[0] 1
x[1] 0
x[2] 1
x[3] 1
x[4] 1
x[5] 1
x[6] 1
x[7] 0
x[8] 0
x[9] 0
x[10] 1
x[11] 1
x[12] 1
x[13] 0
x[14] 0
x[15] 1
x[16] 1
x[17] 1
x[18] 1
x[19] 1
x[20] 1
x[21] 0
x[22] 0
x[23] 0
x[24] 1
x[25] 1
x[26] 0
x[27] 1
x[28] 0
x[29] 1
x[30] 0
x[31] 1
x[32] 1
x[33] 0
x[34] 1
x[35] 0
x[36] 1
x[37] 0
x[38] 0
x[39] 1
x[40] 1
x[41] 1
x[42] 1
x[43] 1
x[44] 1
x[45] 1
x[46] 1
x[47] 1
x[48] 0
x[49] 0
x[50] 1
x[51] 0
x[52] 1
x[53] 1
x[54] 1
x[55] 0
x[56] 0
x[57] 1
x[58] 1
x[59] 0
x[60] 1
x[61] 0
x[62] 1
x[63] 1
x[64] 1
x[65] 1
x[66] 1
x[67] 1
x[68] 0
x[69] 0
x[70] 0
x[71] 0
x[72] 1
x[73] 1
x[74] 1
x[75] 0
x[76] 1
x[77] 0
x[78] 0
x[79] 1
x[80] 0
x[81] 0
x[82] 1
x[83] 1
x[84] 1
x[85] 0
x[86] 1
x[87] 0
x[88] 0
x[89] 1
x[90] 0
x[91] 1
x[92] 1
x[93] 1
x[94] 0
x[95] 1
x[96] 1
x[97] 0
x[98] 0
x[99] 0
x[100] 0
x[101] 0
x[102] 1
x[103] 1
x[104] 0
x[105] 1
x[106] 1
x[107] 0
x[108] 1
x[109] 1
x[110] 1
x[111] 0
x[112] 1
x[113] 0
x[114] 1
x[115] 0
x[116] 1
x[117] 0
x[118] 0
x[119] 1
x[120] 1
x[121] 0
x[122] 1
x[123] 0
x[124] 1
x[125] 1
x[126] 1
x[127] 0
x[128] 1
x[129] 1
x[130] 1
x[131] 1
x[132] 0
x[133] 1
x[134] 0
x[135] 0
x[136] 1
x[137] 1
x[138] 0
x[139] 1
x[140] 0
x[141] 1
x[142] 0
x[143] 0
x[144] 1
x[145] 1
x[146] 1
x[147] 1
x[148] 0
x[149] 1
x[150] 1
x[151] 0
x[152] 1
x[153] 0
x[154] 0
x[155] 1
x[156] 1
x[157] 1
x[158] 0
x[159] 0
x[160] 0
x[161] 0
x[162] 1
x[163] 1
x[164] 1
x[165] 1
x[166] 1
x[167] 0
x[168] 1
x[169] 0
x[170] 0
x[171] 0
x[172] 0
x[173] 0
x[174] 0
x[175] 0
x[176] 1
x[177] 1
x[178] 1
x[179] 0
x[180] 1
x[181] 1
x[182] 0
x[183] 1
x[184] 0
x[185] 0
x[186] 1
x[187] 1
x[188] 0
x[189] 0
x[190] 0
x[191] 1
x[192] 0
x[193] 1
x[194] 1
x[195] 0
x[196] 1
x[197] 1
x[198] 0
x[199] 1
x[200] 0
x[201] 0
x[202] 0
x[203] 0
x[204] 0
x[205] 1
x[206] 0
x[207] 1
x[208] 0
x[209] 0
x[210] 0
x[211] 1
x[212] 0
x[213] 1
x[214] 0
x[215] 1
x[216] 1
x[217] 1
x[218] 0
x[219] 0
x[220] 0
x[221] 0
x[222] 0
x[223] 0
x[224] 1
x[225] 1
x[226] 1
x[227] 0
x[228] 0
x[229] 1
x[230] 1
x[231] 1
x[232] 1
x[233] 0
x[234] 1
x[235] 1
x[236] 0
x[237] 0
x[238] 1
x[239] 1
x[240] 0
x[241] 1
x[242] 0
x[243] 0
x[244] 0
x[245] 1
x[246] 1
x[247] 1
x[248] 0
x[249] 1
x[250] 0
x[251] 1
x[252] 0
x[253] 1
x[254] 1
x[255] 1
x[256] 1
x[257] 1
x[258] 0
x[259] 0
x[260] 1
x[261] 0
x[262] 1
x[263] 0
x[264] 1
x[265] 1
x[266] 1
x[267] 1
x[268] 1
x[269] 1
x[270] 0
x[271] 1
x[272] 1
x[273] 1
x[274] 0
x[275] 0
x[276] 0
x[277] 1
x[278] 1
x[279] 1
x[280] 1
x[281] 0
x[282] 1
x[283] 1
x[284] 1
x[285] 1
x[286] 0
x[287] 1
x[288] 1
x[289] 0
x[290] 1
x[291] 1
x[292] 1
x[293] 0
x[294] 1
x[295] 0
x[296] 1
x[297] 1
x[298] 1
x[299] 0
x[300] 1
x[301] 0
x[302] 0
x[303] 0
x[304] 1
x[305] 0
x[306] 1
x[307] 1
x[308] 1
x[309] 1
x[310] 1
x[311] 0
x[312] 0
x[313] 1
x[314] 0
x[315] 1
x[316] 0
x[317] 1
x[318] 0
x[319] 0
x[320] 1
x[321] 1
x[322] 1
x[323] 1
x[324] 1
x[325] 0
x[326] 0
x[327] 1
x[328] 1
x[329] 1
x[330] 1
x[331] 1
x[332] 1
x[333] 0
x[334] 1
x[335] 0
x[336] 0
x[337] 1
x[338] 1
x[339] 0
x[340] 0
x[341] 1
x[342] 1
x[343] 1
x[344] 0
x[345] 0
x[346] 0
x[347] 1
x[348] 1
x[349] 0
x[350] 0
x[351] 1
x[352] 1
x[353] 1
x[354] 0
x[355] 0
x[356] 1
x[357] 0
x[358] 1
x[359] 1
x[360] 0
x[361] 0
x[362] 1
x[363] 1
x[364] 1
x[365] 1
x[366] 0
x[367] 0
x[368] 1
x[369] 1
x[370] 1
x[371] 0
x[372] 1
x[373] 0
x[374] 1
x[375] 1
x[376] 0
x[377] 1
x[378] 1
x[379] 1
x[380] 1
x[381] 1
x[382] 0
x[383] 0
x[384] 1
x[385] 1
x[386] 1
x[387] 0
x[388] 0
x[389] 1
x[390] 1
x[391] 1
x[392] 1
x[393] 0
x[394] 0
x[395] 0
x[396] 0
x[397] 1
x[398] 0
x[399] 1
x[400] 1
x[401] 1
x[402] 0
x[403] 1
x[404] 0
x[405] 1
x[406] 1
x[407] 0
x[408] 1
x[409] 0
x[410] 0
x[411] 0
x[412] 0
x[413] 0
x[414] 0
x[415] 1
x[416] 1
x[417] 0
x[418] 0
x[419] 0
x[420] 0
x[421] 0
x[422] 1
x[423] 0
x[424] 0
x[425] 0
x[426] 0
x[427] 0
x[428] 0
x[429] 1
x[430] 1
x[431] 1
x[432] 0
x[433] 0
x[434] 0
x[435] 1
x[436] 1
x[437] 1
x[438] 1
x[439] 1
x[440] 0
x[441] 1
x[442] 0
x[443] 1
x[444] 1
x[445] 0
x[446] 0
x[447] 1
x[448] 1
x[449] 1
x[450] 0
x[451] 1
x[452] 0
x[453] 0
x[454] 1
x[455] 1
x[456] 1
x[457] 1
x[458] 1
x[459] 0
x[460] 0
x[461] 0
x[462] 0
x[463] 1
x[464] 0
x[465] 1
x[466] 1
x[467] 0
x[468] 1
x[469] 1
x[470] 0
x[471] 1
x[472] 0
x[473] 1
x[474] 1
x[475] 0
x[476] 0
x[477] 0
x[478] 1
x[479] 1
x[480] 0
x[481] 1
x[482] 0
x[483] 1
x[484] 1
x[485] 1
x[486] 0
x[487] 0
x[488] 1
x[489] 1
x[490] 0
x[491] 1
x[492] 1
x[493] 0
x[494] 1
x[495] 1
x[496] 1
x[497] 1
x[498] 1
x[499] 1
x[500] 1
x[501] 1
x[502] 0
x[503] 1
x[504] 0
x[505] 1
x[506] 1
x[507] 0
x[508] 0
x[509] 1
x[510] 1
x[511] 1
x[512] 0
x[513] 1
x[514] 1
x[515] 0
x[516] 1
x[517] 0
x[518] 1
x[519] 1
x[520] 1
x[521] 0
x[522] 1
x[523] 0
x[524] 1
x[525] 1
x[526] 1
x[527] 0
x[528] 1
x[529] 1
x[530] 0
x[531] 1
x[532] 0
x[533] 1
x[534] 1
x[535] 0
x[536] 1
x[537] 1
x[538] 1
x[539] 1
x[540] 1
x[541] 0
x[542] 1
x[543] 0
x[544] 1
x[545] 0
x[546] 1
x[547] 1
x[548] 0
x[549] 1
x[550] 1
x[551] 1
x[552] 0
x[553] 0
x[554] 1
x[555] 0
x[556] 1
x[557] 0
x[558] 1
x[559] 1
x[560] 0
x[561] 0
x[562] 1
x[563] 0
x[564] 1
x[565] 1
x[566] 0
x[567] 1
x[568] 1
x[569] 1
x[570] 1
x[571] 0
x[572] 1
x[573] 0
x[574] 1
x[575] 1
x[576] 1
x[577] 1
x[578] 1
x[579] 1
x[580] 0
x[581] 0
x[582] 0
x[583] 1
x[584] 1
x[585] 0
x[586] 1
x[587] 1
x[588] 1
x[589] 1
x[590] 1
x[591] 0
x[592] 1
x[593] 1
x[594] 1
x[595] 0
x[596] 0
x[597] 0
x[598] 1
x[599] 1
x[600] 0
x[601] 1
x[602] 1
x[603] 0
x[604] 1
x[605] 1
x[606] 0
x[607] 1
x[608] 1
x[609] 0
x[610] 0
x[611] 0
x[612] 1
x[613] 0
x[614] 0
x[615] 0
x[616] 0
x[617] 0
x[618] 1
x[619] 1
x[620] 1
x[621] 1
x[622] 1
x[623] 0
x[624] 1
x[625] 1
x[626] 0
x[627] 1
x[628] 1
x[629] 1
x[630] 1
x[631] 1
x[632] 1
x[633] 0
x[634] 1
x[635] 1
x[636] 0
x[637] 0
x[638] 0
x[639] 1
x[640] 1
x[641] 1
x[642] 0
x[643] 0
x[644] 0
x[645] 0
x[646] 0
x[647] 1
x[648] 0
x[649] 0
x[650] 0
x[651] 1
x[652] 0
x[653] 1
x[654] 0
x[655] 1
x[656] 0
x[657] 1
x[658] 0
x[659] 1
x[660] 0
x[661] 1
x[662] 1
x[663] 0
x[664] 0
x[665] 1
x[666] 1
x[667] 0
x[668] 1
x[669] 0
x[670] 0
x[671] 1
x[672] 0
x[673] 0
x[674] 1
x[675] 1
x[676] 1
x[677] 1
x[678] 0
x[679] 1
x[680] 1
x[681] 1
x[682] 0
x[683] 1
x[684] 1
x[685] 1
x[686] 0
x[687] 0
x[688] 1
x[689] 1
x[690] 0
x[691] 1
x[692] 0
x[693] 1
x[694] 0
x[695] 1
x[696] 1
x[697] 1
x[698] 0
x[699] 0
x[700] 1
x[701] 0
x[702] 0
x[703] 1
x[704] 1
x[705] 1
x[706] 1
x[707] 0
x[708] 1
x[709] 1
x[710] 1
x[711] 1
x[712] 1
x[713] 1
x[714] 1
x[715] 0
x[716] 0
x[717] 1
x[718] 1
x[719] 0
x[720] 1
x[721] 1
x[722] 1
x[723] 1
x[724] 1
x[725] 1
x[726] 0
x[727] 0
x[728] 0
x[729] 1
x[730] 1
x[731] 0
x[732] 1
x[733] 1
x[734] 1
x[735] 0
x[736] 1
x[737] 1
x[738] 1
x[739] 1
x[740] 0
x[741] 0
x[742] 1
x[743] 1
x[744] 0
x[745] 1
x[746] 1
x[747] 0
x[748] 1
x[749] 1
x[750] 1
x[751] 1
x[752] 0
x[753] 1
x[754] 0
x[755] 0
x[756] 0
x[757] 1
x[758] 0
x[759] 1
x[760] 1
x[761] 0
x[762] 0
x[763] 0
x[764] 0
x[765] 1
x[766] 1
x[767] 1
x[768] 1
x[769] 1
x[770] 1
x[771] 0
x[772] 0
x[773] 1
x[774] 0
x[775] 0
x[776] 0
x[777] 0
x[778] 1
x[779] 1
x[780] 0
x[781] 1
x[782] 1
x[783] 0
x[784] 1
x[785] 1
x[786] 1
x[787] 0
x[788] 1
x[789] 1
x[790] 0
x[791] 1
x[792] 1
x[793] 1
x[794] 0
x[795] 1
x[796] 0
x[797] 0
x[798] 0
x[799] 0
x[800] 0
x[801] 1
x[802] 1
x[803] 1
x[804] 0
x[805] 0
x[806] 0
x[807] 1
x[808] 1
x[809] 1
x[810] 0
x[811] 1
x[812] 1
x[813] 1
x[814] 1
x[815] 1
x[816] 1
x[817] 0
x[818] 1
x[819] 0
x[820] 0
x[821] 1
x[822] 0
x[823] 1
x[824] 0
x[825] 1
x[826] 0
x[827] 0
x[828] 1
x[829] 0
x[830] 1
x[831] 1
x[832] 1
x[833] 1
x[834] 0
x[835] 0
x[836] 1
x[837] 0
x[838] 0
x[839] 0
x[840] 0
x[841] 1
x[842] 0
x[843] 1
x[844] 1
x[845] 1
x[846] 0
x[847] 0
x[848] 0
x[849] 1
x[850] 1
x[851] 0
x[852] 0
x[853] 0
x[854] 1
x[855] 0
x[856] 0
x[857] 0
x[858] 0
x[859] 0
x[860] 1
x[861] 0
x[862] 0
x[863] 1
x[864] 1
x[865] 0
x[866] 1
x[867] 1
x[868] 0
x[869] 0
x[870] 1
x[871] 0
x[872] 0
x[873] 1
x[874] 1
x[875] 0
x[876] 1
x[877] 0
x[878] 0
x[879] 1
x[880] 1
x[881] 0
x[882] 1
x[883] 0
x[884] 1
x[885] 1
x[886] 0
x[887] 1
x[888] 0
x[889] 0
x[890] 0
x[891] 1
x[892] 1
x[893] 1
x[894] 0
x[895] 0
x[896] 0
x[897] 1
x[898] 0
x[899] 0
x[900] 0
x[901] 1
x[902] 0
x[903] 0
x[904] 1
x[905] 0
x[906] 0
x[907] 0
x[908] 1
x[909] 1
x[910] 1
x[911] 0
x[912] 1
x[913] 1
x[914] 1
x[915] 1
x[916] 0
x[917] 1
x[918] 0
x[919] 0
x[920] 0
x[921] 0
x[922] 1
x[923] 0
x[924] 0
x[925] 0
x[926] 1
x[927] 1
x[928] 0
x[929] 1
x[930] 1
x[931] 0
x[932] 0
x[933] 0
x[934] 0
x[935] 0
x[936] 0
x[937] 1
x[938] 1
x[939] 0
x[940] 1
x[941] 1
x[942] 0
x[943] 1
x[944] 1
x[945] 0
x[946] 0
x[947] 1
x[948] 1
x[949] 0
x[950] 0
x[951] 0
x[952] 1
x[953] 1
x[954] 1
x[955] 0
x[956] 0
x[957] 1
x[958] 1
x[959] 1
x[960] 1
x[961] 0
x[962] 1
x[963] 1
x[964] 1
x[965] 1
x[966] 1
x[967] 0
x[968] 0
x[969] 1
x[970] 1
x[971] 0
x[972] 1
x[973] 0
x[974] 0
x[975] 0
x[976] 1
x[977] 0
x[978] 0
x[979] 0
x[980] 0
x[981] 1
x[982] 1
x[983] 0
x[984] 0
x[985] 0
x[986] 1
x[987] 0
x[988] 0
x[989] 1
x[990] 1
x[991] 0
x[992] 0
x[993] 0
x[994] 1
x[995] 0
x[996] 0
x[997] 0
x[998] 1
x[999] 0
